
(set-logic ALL) 

(declare-datatype MyList ((Nil) (Cons (head Real) (tail MyList)) )) 
(declare-fun l0 () MyList) 
(declare-fun l1 () MyList) 
(declare-fun l2 () MyList) 
(declare-fun l3 () MyList) 
(declare-fun i0 () Real) 
(declare-fun i1 () Real) 
(assert (and (= l1 Nil) (= l1 l3)) )
(assert (and (is-Nil l3) (= l0 Nil) (is-Nil l3)) )
(assert (not (= l1 Nil)) )
(assert (is-Cons l0) )
(assert (= l2 Nil) )
(assert (not (is-Cons l0)) )
(assert (not (= l0 Nil)) )
(assert (not (= l2 Nil)) )
(check-sat)
